750
125 125
1 87 297
2 87 420
3 87 219
4 87 812
5 87 502
6 87 111
7 87 553
8 87 347
9 87 712
10 87 145
11 87 246
12 86 108
13 86 60
14 86 996
15 86 131
16 86 839
17 86 208
18 86 582
19 86 274
20 86 43
21 86 101
22 86 535
23 85 973
24 85 841
25 85 464
26 85 385
27 85 880
28 85 596
29 85 885
30 85 201
31 85 79
32 85 54
33 85 527
34 85 181
35 85 978
36 84 927
37 84 636
38 84 393
39 84 602
40 84 293
41 84 622
42 84 139
43 84 594
44 84 969
45 84 838
46 84 914
47 84 774
48 83 175
49 83 240
50 83 601
51 83 134
52 83 361
53 83 97
54 83 919
55 83 232
56 82 554
57 82 501
58 82 154
59 82 686
60 82 952
61 82 833
62 82 988
63 82 344
64 82 686
65 82 289
66 81 744
67 81 80
68 81 366
69 81 225
70 80 531
71 80 696
72 80 753
73 80 799
74 80 737
75 80 415
76 80 720
77 80 762
78 80 381
79 80 961
80 80 411
81 80 287
82 80 278
83 80 717
84 79 92
85 79 246
86 79 645
87 79 768
88 79 712
89 79 368
90 79 544
91 79 190
92 79 506
93 79 162
94 79 449
95 79 332
96 79 555
97 78 728
98 78 924
99 78 306
100 78 429
101 78 496
102 78 430
103 78 907
104 78 581
105 78 635
106 78 945
107 78 277
108 78 665
109 78 884
110 78 467
111 78 723
112 78 534
113 77 208
114 77 157
115 77 193
116 77 414
117 77 229
118 77 689
119 77 934
120 77 996
121 77 503
122 77 38
123 76 129
124 76 497
125 76 288
126 76 366
127 76 966
128 76 691
129 76 955
130 76 387
131 76 954
132 76 657
133 76 871
134 76 679
135 76 175
136 75 445
137 75 170
138 75 512
139 75 449
140 75 692
141 75 483
142 75 243
143 75 680
144 75 911
145 75 215
146 75 377
147 75 608
148 75 819
149 75 723
150 74 39
151 74 250
152 74 288
153 74 999
154 74 326
155 74 640
156 74 399
157 74 410
158 74 710
159 74 65
160 74 204
161 74 779
162 74 965
163 74 57
164 74 496
165 73 70
166 73 645
167 73 96
168 73 787
169 73 20
170 73 482
171 73 686
172 73 904
173 73 735
174 73 957
175 73 852
176 73 588
177 73 293
178 73 697
179 72 992
180 72 240
181 72 344
182 72 207
183 72 334
184 72 227
185 72 720
186 72 261
187 72 183
188 72 500
189 72 47
190 72 204
191 72 309
192 72 174
193 72 760
194 72 845
195 72 684
196 71 127
197 71 804
198 71 111
199 71 961
200 71 156
201 71 252
202 71 818
203 71 479
204 71 835
205 71 878
206 71 957
207 71 305
208 71 367
209 70 834
210 70 651
211 70 258
212 70 569
213 70 23
214 70 911
215 70 60
216 70 893
217 70 83
218 70 270
219 70 452
220 70 674
221 70 650
222 70 719
223 70 241
224 70 295
225 70 443
226 70 726
227 70 683
228 69 318
229 69 111
230 69 757
231 69 565
232 69 533
233 69 78
234 69 548
235 69 419
236 69 725
237 69 47
238 69 557
239 69 910
240 68 981
241 68 112
242 68 167
243 68 901
244 68 275
245 68 7
246 68 272
247 68 888
248 68 42
249 68 435
250 68 67
251 67 326
252 67 89
253 67 891
254 67 189
255 67 411
256 67 683
257 67 287
258 67 398
259 67 732
260 67 635
261 67 729
262 67 847
263 67 163
264 67 807
265 67 397
266 67 536
267 66 46
268 66 76
269 66 524
270 66 153
271 66 142
272 66 442
273 66 511
274 66 253
275 66 502
276 66 308
277 66 929
278 66 127
279 66 940
280 66 821
281 66 332
282 65 964
283 65 324
284 65 825
285 65 21
286 65 277
287 65 692
288 65 937
289 65 551
290 65 821
291 65 385
292 65 202
293 65 112
294 65 109
295 65 11
296 64 864
297 64 10
298 64 225
299 64 41
300 64 127
301 64 364
302 64 869
303 64 398
304 64 271
305 64 785
306 63 339
307 63 733
308 63 18
309 63 753
310 63 49
311 63 141
312 63 359
313 63 792
314 63 417
315 62 955
316 62 518
317 62 851
318 62 428
319 62 468
320 62 91
321 62 259
322 62 421
323 62 986
324 62 784
325 62 673
326 62 801
327 62 364
328 61 170
329 61 360
330 61 494
331 61 662
332 61 367
333 61 666
334 60 426
335 60 444
336 60 843
337 60 332
338 60 102
339 60 828
340 60 567
341 60 342
342 60 469
343 59 576
344 59 14
345 59 285
346 59 239
347 59 767
348 59 649
349 59 619
350 58 482
351 58 687
352 58 19
353 58 473
354 58 336
355 58 750
356 58 335
357 58 760
358 58 156
359 58 164
360 58 766
361 58 200
362 58 728
363 57 989
364 57 504
365 57 964
366 57 696
367 57 998
368 57 483
369 57 95
370 57 436
371 57 172
372 57 119
373 57 592
374 56 750
375 56 140
376 56 577
377 56 941
378 56 492
379 56 518
380 56 573
381 56 26
382 56 975
383 56 913
384 56 193
385 55 480
386 55 388
387 55 863
388 55 85
389 55 704
390 55 908
391 55 416
392 55 424
393 55 315
394 55 63
395 55 499
396 55 891
397 55 320
398 55 956
399 55 614
400 55 656
401 55 269
402 55 112
403 54 198
404 54 596
405 54 61
406 54 457
407 54 708
408 54 844
409 54 573
410 54 761
411 54 380
412 54 255
413 53 142
414 53 475
415 53 128
416 53 879
417 53 892
418 53 218
419 53 419
420 53 312
421 53 299
422 53 414
423 53 662
424 52 773
425 52 837
426 52 905
427 52 383
428 52 309
429 52 817
430 52 683
431 52 510
432 51 982
433 51 889
434 51 44
435 51 206
436 51 336
437 51 358
438 51 638
439 51 10
440 51 329
441 51 138
442 51 535
443 51 758
444 50 590
445 50 547
446 50 250
447 50 708
448 50 653
449 50 217
450 50 899
451 50 817
452 50 622
453 50 263
454 50 887
455 50 807
456 50 990
457 50 989
458 50 348
459 50 240
460 50 116
461 49 449
462 49 728
463 49 766
464 49 43
465 49 250
466 49 485
467 49 307
468 49 332
469 49 413
470 49 949
471 49 925
472 49 516
473 48 348
474 48 176
475 48 667
476 48 840
477 48 265
478 48 766
479 48 562
480 48 650
481 48 125
482 47 641
483 47 390
484 47 263
485 47 835
486 47 255
487 47 552
488 47 119
489 47 154
490 47 411
491 47 972
492 47 722
493 47 207
494 47 540
495 47 462
496 47 171
497 46 217
498 46 331
499 46 602
500 46 737
501 46 363
502 46 10
503 45 360
504 45 612
505 45 74
506 45 406
507 45 25
508 45 240
509 45 425
510 45 764
511 45 491
512 45 672
513 45 912
514 45 777
515 45 90
516 45 513
517 45 413
518 45 691
519 45 585
520 45 526
521 45 403
522 45 512
523 45 315
524 44 659
525 44 766
526 44 507
527 44 962
528 44 374
529 44 754
530 44 159
531 44 984
532 44 486
533 44 592
534 44 670
535 44 776
536 44 501
537 44 217
538 44 594
539 44 700
540 43 973
541 43 154
542 43 358
543 43 878
544 43 895
545 42 350
546 42 758
547 42 484
548 42 166
549 42 286
550 42 732
551 42 802
552 42 481
553 42 756
554 42 284
555 42 150
556 42 647
557 42 34
558 42 853
559 41 292
560 41 33
561 41 65
562 41 462
563 41 921
564 41 277
565 41 595
566 41 172
567 41 416
568 41 356
569 41 452
570 41 142
571 40 735
572 40 974
573 40 650
574 40 154
575 40 696
576 40 160
577 40 537
578 40 585
579 40 504
580 39 796
581 39 601
582 39 300
583 39 393
584 39 795
585 39 118
586 39 875
587 39 629
588 39 748
589 39 277
590 39 353
591 39 834
592 38 752
593 38 604
594 38 917
595 38 857
596 38 629
597 38 308
598 38 301
599 38 597
600 37 82
601 37 86
602 37 681
603 37 668
604 37 997
605 37 345
606 37 962
607 37 274
608 37 524
609 37 637
610 37 44
611 37 940
612 37 25
613 36 413
614 36 225
615 36 954
616 36 867
617 36 977
618 36 998
619 36 510
620 36 267
621 36 868
622 36 605
623 36 179
624 35 706
625 35 366
626 35 160
627 35 626
628 35 876
629 35 596
630 35 711
631 35 647
632 35 959
633 35 331
634 35 643
635 35 114
636 35 149
637 34 18
638 34 243
639 34 629
640 34 692
641 34 584
642 34 200
643 34 120
644 34 377
645 34 527
646 34 795
647 33 763
648 33 271
649 33 0
650 33 424
651 33 904
652 33 127
653 33 778
654 33 65
655 33 103
656 33 532
657 32 685
658 32 654
659 32 341
660 32 908
661 32 407
662 32 680
663 32 747
664 32 857
665 32 379
666 32 223
667 31 922
668 31 326
669 31 405
670 31 968
671 31 85
672 31 232
673 31 74
674 31 425
675 31 190
676 31 437
677 31 711
678 30 215
679 30 976
680 30 732
681 30 707
682 30 601
683 30 601
684 30 421
685 30 848
686 30 639
687 30 494
688 30 572
689 30 651
690 30 450
691 30 191
692 30 363
693 30 55
694 29 247
695 29 544
696 29 166
697 29 906
698 29 519
699 29 189
700 29 248
701 29 129
702 29 579
703 29 140
704 29 814
705 29 615
706 29 844
707 29 287
708 28 483
709 28 106
710 28 809
711 28 299
712 28 567
713 28 603
714 28 373
715 28 453
716 28 170
717 28 495
718 27 623
719 27 531
720 27 271
721 27 827
722 27 710
723 27 760
724 27 149
725 27 189
726 26 260
727 26 899
728 26 579
729 26 551
730 26 873
731 26 665
732 26 779
733 26 644
734 26 406
735 26 361
736 26 528
737 26 562
738 25 142
739 25 413
740 25 420
741 25 230
742 25 395
743 25 931
744 25 1000
745 25 482
746 25 381
747 25 83
748 25 821
749 25 540
750 25 825
